50 8
242 549
531 165
510 842
787 591
124 344
170 285
803 109
511 585
707 163
407 484
755 452
912 597
838 524
460 375
295 275
251 599
87 807
221 829
419 504
219 405
221 347
603 316
688 175
605 159
523 936
707 334
341 613
811 198
361 586
873 482
408 679
256 272
619 201
815 257
769 166
678 802
287 546
603 735
115 620
416 332
631 737
766 724
583 457
537 522
299 545
804 259
99 198
206 184
691 72
275 518
